words_hard_train/5771.qaiger
aag 71 16 0 1 55
2
4
12
14
18
20
30
32
44
46
58
60
72
74
86
88
143
6 3 4
8 2 5
10 7 9
16 12 15
22 18 21
24 17 23
26 19 20
28 25 27
34 31 32
36 30 33
38 35 37
40 28 38
42 41 37
48 45 46
50 44 47
52 49 51
54 43 52
56 55 51
62 59 60
64 58 61
66 63 65
68 57 66
70 69 65
76 73 74
78 72 75
80 77 79
82 71 80
84 83 79
90 87 88
92 86 89
94 91 93
96 85 94
98 97 93
100 10 99
102 11 98
104 101 103
106 56 67
108 107 69
110 108 55
112 13 14
114 113 27
116 114 24
118 29 39
120 119 41
122 117 121
124 42 53
126 123 125
128 70 81
130 126 129
132 110 130
134 132 83
136 84 95
138 97 137
140 135 139
142 105 141
i0 1 x2[7]
i1 2 y1[7]
i2 1 x2[0]
i3 2 y1[0]
i4 1 x2[1]
i5 2 y1[1]
i6 1 x2[2]
i7 2 y1[2]
i8 1 x2[3]
i9 2 y1[3]
i10 1 x2[4]
i11 2 y1[4]
i12 1 x2[5]
i13 2 y1[5]
i14 1 x2[6]
i15 2 y1[6]
o0 bv[0]
c
simplified
  <=
    add
      1 x2
      invert
        2 y1
    add
      1
      -199
