words_hard_train/5771.qaiger.qdimacs
p cnf 71 166
a 1 36 6 9 43 15 22 29 0
e 2 3 4 5 7 8 10 11 12 13 14 16 17 18 19 20 21 23 24 25 26 27 28 30 31 32 33 34 35 37 38 39 40 41 42 44 45 46 47 48 49 50 51 52 53 54 55 56 57 58 59 60 61 62 63 64 65 66 67 68 69 70 71 0
1 -2 3 0
-1 -3 0
2 -3 0
-1 2 4 0
1 -4 0
-2 -4 0
3 4 5 0
-3 -5 0
-4 -5 0
-6 7 8 0
6 -8 0
-7 -8 0
-9 10 11 0
9 -11 0
-10 -11 0
8 11 12 0
-8 -12 0
-11 -12 0
9 -10 13 0
-9 -13 0
10 -13 0
12 13 14 0
-12 -14 0
-13 -14 0
15 -16 17 0
-15 -17 0
16 -17 0
-15 16 18 0
15 -18 0
-16 -18 0
17 18 19 0
-17 -19 0
-18 -19 0
-14 -19 20 0
14 -20 0
19 -20 0
20 18 21 0
-20 -21 0
-18 -21 0
22 -23 24 0
-22 -24 0
23 -24 0
-22 23 25 0
22 -25 0
-23 -25 0
24 25 26 0
-24 -26 0
-25 -26 0
21 -26 27 0
-21 -27 0
26 -27 0
27 25 28 0
-27 -28 0
-25 -28 0
29 -30 31 0
-29 -31 0
30 -31 0
-29 30 32 0
29 -32 0
-30 -32 0
31 32 33 0
-31 -33 0
-32 -33 0
28 -33 34 0
-28 -34 0
33 -34 0
34 32 35 0
-34 -35 0
-32 -35 0
36 -37 38 0
-36 -38 0
37 -38 0
-36 37 39 0
36 -39 0
-37 -39 0
38 39 40 0
-38 -40 0
-39 -40 0
35 -40 41 0
-35 -41 0
40 -41 0
41 39 42 0
-41 -42 0
-39 -42 0
43 -44 45 0
-43 -45 0
44 -45 0
-43 44 46 0
43 -46 0
-44 -46 0
45 46 47 0
-45 -47 0
-46 -47 0
42 -47 48 0
-42 -48 0
47 -48 0
48 46 49 0
-48 -49 0
-46 -49 0
-5 49 50 0
5 -50 0
-49 -50 0
5 -49 51 0
-5 -51 0
49 -51 0
50 51 52 0
-50 -52 0
-51 -52 0
-28 33 53 0
28 -53 0
-33 -53 0
53 34 54 0
-53 -54 0
-34 -54 0
-54 27 55 0
54 -55 0
-27 -55 0
6 -7 56 0
-6 -56 0
7 -56 0
56 13 57 0
-56 -57 0
-13 -57 0
-57 -12 58 0
57 -58 0
12 -58 0
14 19 59 0
-14 -59 0
-19 -59 0
59 20 60 0
-59 -60 0
-20 -60 0
58 60 61 0
-58 -61 0
-60 -61 0
-21 26 62 0
21 -62 0
-26 -62 0
61 62 63 0
-61 -63 0
-62 -63 0
-35 40 64 0
35 -64 0
-40 -64 0
-63 64 65 0
63 -65 0
-64 -65 0
-55 -65 66 0
55 -66 0
65 -66 0
-66 41 67 0
66 -67 0
-41 -67 0
-42 47 68 0
42 -68 0
-47 -68 0
48 68 69 0
-48 -69 0
-68 -69 0
67 69 70 0
-67 -70 0
-69 -70 0
52 70 71 0
-52 -71 0
-70 -71 0
-71 0
